# 63334
param k := 6;
param n := 60;
param s := 1;
set E :=  (0,9) (0,43) (1,29) (1,55) (2,19) (2,27) (2,28) (3,24) (3,48) (4,29) (5,24) (5,33) (6,22) (7,25) (8,9) (8,10) (8,25) (9,48) (10,36) (10,56) (11,52) (12,23) (12,40) (13,29) (14,30) (14,49) (14,58) (15,43) (15,52) (16,18) (16,21) (17,30) (19,35) (20,37) (20,57) (21,51) (22,26) (22,29) (23,50) (24,41) (24,53) (25,31) (25,44) (26,53) (27,38) (28,42) (32,36) (34,47) (34,54) (35,47) (35,58) (38,39) (39,43) (39,46) (40,46) (44,45) (44,55) (44,56) (47,51) (52,57) (54,57) (55,59);